c turning on binary mode checking
c parsing input formula with 259840 variables and 1039929 clauses
c finished parsing, read 3089666 bytes from proof file
c detected empty clause; start verification via backward checking
c 3957 of 1039929 clauses in core                            
c 1240 of 126867 lemmas in core using 26321 resolution steps
c 0 RAT lemmas in core; 29 redundant literals in core lemmas
s VERIFIED
c verification time: 1.236 seconds
